Welcome to the CBC MILP Solver
Version: Devel (unstable)
Build Date: Feb  6 2022
command line - -import /home/danilo/psp-janniele/J30/j309/j309_7.lp -timeM elapsed -seconds 10800 -solve -quit (default strategy 1)
seconds was changed from 1e+08 to 10800
Continuous objective value is 0 - 0.111331 seconds
Cgl0002I 17 variables fixed
Cgl0003I 50 fixed, 0 tightened bounds, 12 strengthened rows, 1 substitutions
Cgl0003I 82 fixed, 0 tightened bounds, 10 strengthened rows, 0 substitutions
Cgl0003I 14 fixed, 0 tightened bounds, 13 strengthened rows, 0 substitutions
Cgl0003I 0 fixed, 0 tightened bounds, 12 strengthened rows, 0 substitutions
Cgl0003I 0 fixed, 0 tightened bounds, 29 strengthened rows, 0 substitutions
Cgl0003I 0 fixed, 0 tightened bounds, 21 strengthened rows, 0 substitutions
Cgl0003I 0 fixed, 0 tightened bounds, 12 strengthened rows, 0 substitutions
Cgl0003I 0 fixed, 0 tightened bounds, 10 strengthened rows, 0 substitutions
Cgl0003I 8 fixed, 0 tightened bounds, 9 strengthened rows, 0 substitutions
Cgl0003I 0 fixed, 0 tightened bounds, 7 strengthened rows, 0 substitutions
Cgl0003I 0 fixed, 0 tightened bounds, 11 strengthened rows, 0 substitutions
Cgl0003I 0 fixed, 0 tightened bounds, 8 strengthened rows, 0 substitutions
Cgl0003I 0 fixed, 0 tightened bounds, 4 strengthened rows, 0 substitutions
Cgl0004I processed model has 208 rows, 534 columns (534 integer (534 of which binary)) and 5784 elements
Coin3009W Conflict graph built in 0.025 seconds, density: 2.481%
Cgl0015I Clique Strengthening extended 1 cliques, 3 were dominated
After applying Clique Strengthening continuous objective value is 0
Cbc0045I No integer variables out of 534 objects (534 integer) have costs
Cbc0045I branch on satisfied N create fake objective Y random cost Y
Cbc0038I Initial state - 69 integers unsatisfied sum - 17.193
Cbc0038I Pass   1: suminf.    6.71514 (36) obj. 0 iterations 89
Cbc0038I Pass   2: suminf.    6.53286 (35) obj. 0 iterations 11
Cbc0038I Pass   3: suminf.    6.96941 (26) obj. 0 iterations 111
Cbc0038I Pass   4: suminf.    5.82679 (25) obj. 0 iterations 43
Cbc0038I Pass   5: suminf.    5.21126 (25) obj. 0 iterations 23
Cbc0038I Pass   6: suminf.    5.08206 (25) obj. 0 iterations 8
Cbc0038I Pass   7: suminf.    6.30175 (28) obj. 0 iterations 57
Cbc0038I Pass   8: suminf.    5.98627 (28) obj. 0 iterations 32
Cbc0038I Pass   9: suminf.    5.92745 (25) obj. 0 iterations 79
Cbc0038I Pass  10: suminf.    5.11111 (25) obj. 0 iterations 41
Cbc0038I Pass  11: suminf.    4.72212 (23) obj. 0 iterations 40
Cbc0038I Pass  12: suminf.    4.50561 (24) obj. 0 iterations 30
Cbc0038I Pass  13: suminf.    5.55938 (22) obj. 0 iterations 56
Cbc0038I Pass  14: suminf.    5.11052 (24) obj. 0 iterations 9
Cbc0038I Pass  15: suminf.    5.21286 (26) obj. 0 iterations 53
Cbc0038I Pass  16: suminf.    4.42526 (25) obj. 0 iterations 30
Cbc0038I Pass  17: suminf.    5.41165 (29) obj. 0 iterations 31
Cbc0038I Pass  18: suminf.    4.49237 (22) obj. 0 iterations 28
Cbc0038I Pass  19: suminf.    3.57071 (21) obj. 0 iterations 2
Cbc0038I Pass  20: suminf.    3.49524 (19) obj. 0 iterations 3
Cbc0038I Pass  21: suminf.    6.20704 (23) obj. 0 iterations 51
Cbc0038I Pass  22: suminf.    4.12439 (22) obj. 0 iterations 38
Cbc0038I Pass  23: suminf.    3.69464 (15) obj. 0 iterations 38
Cbc0038I Pass  24: suminf.    2.85525 (17) obj. 0 iterations 25
Cbc0038I Pass  25: suminf.    2.81169 (14) obj. 0 iterations 7
Cbc0038I Pass  26: suminf.    4.97109 (17) obj. 0 iterations 57
Cbc0038I Pass  27: suminf.    2.88708 (16) obj. 0 iterations 43
Cbc0038I Pass  28: suminf.    2.58086 (14) obj. 0 iterations 19
Cbc0038I Pass  29: suminf.    2.55844 (12) obj. 0 iterations 15
Cbc0038I Pass  30: suminf.    4.99462 (19) obj. 0 iterations 65
Cbc0038I Pass  31: suminf.    3.85337 (18) obj. 0 iterations 46
Cbc0038I Pass  32: suminf.    3.79375 (21) obj. 0 iterations 11
Cbc0038I Pass  33: suminf.    5.08975 (24) obj. 0 iterations 43
Cbc0038I Pass  34: suminf.    3.28194 (19) obj. 0 iterations 49
Cbc0038I Pass  35: suminf.    3.28194 (19) obj. 0 iterations 0
Cbc0038I Pass  36: suminf.    5.96664 (22) obj. 0 iterations 53
Cbc0038I Pass  37: suminf.    5.18330 (20) obj. 0 iterations 27
Cbc0038I Pass  38: suminf.    4.20339 (17) obj. 0 iterations 18
Cbc0038I Pass  39: suminf.    3.42976 (16) obj. 0 iterations 21
Cbc0038I Pass  40: suminf.    3.40837 (16) obj. 0 iterations 7
Cbc0038I Pass  41: suminf.    3.88692 (12) obj. 0 iterations 59
Cbc0038I Pass  42: suminf.    3.12625 (17) obj. 0 iterations 36
Cbc0038I Pass  43: suminf.    2.20692 (8) obj. 0 iterations 35
Cbc0038I Pass  44: suminf.    2.11014 (10) obj. 0 iterations 13
Cbc0038I Pass  45: suminf.    3.33976 (13) obj. 0 iterations 40
Cbc0038I Pass  46: suminf.    2.94351 (12) obj. 0 iterations 19
Cbc0038I Pass  47: suminf.    2.19805 (9) obj. 0 iterations 37
Cbc0038I Pass  48: suminf.    1.85049 (10) obj. 0 iterations 8
Cbc0038I Pass  49: suminf.    3.42939 (17) obj. 0 iterations 30
Cbc0038I Pass  50: suminf.    2.65962 (13) obj. 0 iterations 35
Cbc0038I Pass  51: suminf.    2.55165 (15) obj. 0 iterations 12
Cbc0038I Pass  52: suminf.    2.11444 (9) obj. 0 iterations 42
Cbc0038I Pass  53: suminf.    1.99048 (10) obj. 0 iterations 27
Cbc0038I Pass  54: suminf.    2.88636 (11) obj. 0 iterations 34
Cbc0038I Pass  55: suminf.    2.55342 (16) obj. 0 iterations 36
Cbc0038I Pass  56: suminf.    3.13564 (14) obj. 0 iterations 37
Cbc0038I Pass  57: suminf.    2.99048 (12) obj. 0 iterations 27
Cbc0038I Pass  58: suminf.    1.99048 (11) obj. 0 iterations 7
Cbc0038I Pass  59: suminf.    3.80613 (20) obj. 0 iterations 38
Cbc0038I Pass  60: suminf.    3.54090 (18) obj. 0 iterations 32
Cbc0038I Pass  61: suminf.    4.43889 (15) obj. 0 iterations 51
Cbc0038I Pass  62: suminf.    2.99048 (14) obj. 0 iterations 19
Cbc0038I Pass  63: suminf.    1.99048 (11) obj. 0 iterations 19
Cbc0038I Pass  64: suminf.    3.30764 (16) obj. 0 iterations 41
Cbc0038I Pass  65: suminf.    3.25014 (19) obj. 0 iterations 15
Cbc0038I Pass  66: suminf.    5.68088 (21) obj. 0 iterations 86
Cbc0038I Pass  67: suminf.    5.06264 (25) obj. 0 iterations 33
Cbc0038I Pass  68: suminf.    5.06264 (26) obj. 0 iterations 1
Cbc0038I Pass  69: suminf.    6.32789 (21) obj. 0 iterations 56
Cbc0038I Pass  70: suminf.    3.70769 (12) obj. 0 iterations 43
Cbc0038I Pass  71: suminf.    3.70769 (12) obj. 0 iterations 6
Cbc0038I Pass  72: suminf.    3.45649 (15) obj. 0 iterations 85
Cbc0038I Pass  73: suminf.    3.43282 (18) obj. 0 iterations 20
Cbc0038I Pass  74: suminf.    3.97670 (14) obj. 0 iterations 39
Cbc0038I Pass  75: suminf.    2.95586 (11) obj. 0 iterations 22
Cbc0038I Pass  76: suminf.    2.95586 (11) obj. 0 iterations 1
Cbc0038I Pass  77: suminf.    4.59580 (19) obj. 0 iterations 62
Cbc0038I Pass  78: suminf.    3.59580 (16) obj. 0 iterations 32
Cbc0038I Pass  79: suminf.    3.59580 (16) obj. 0 iterations 3
Cbc0038I Pass  80: suminf.    4.31854 (18) obj. 0 iterations 72
Cbc0038I Pass  81: suminf.    3.31032 (18) obj. 0 iterations 41
Cbc0038I Pass  82: suminf.    3.16587 (18) obj. 0 iterations 15
Cbc0038I Pass  83: suminf.    5.75859 (19) obj. 0 iterations 78
Cbc0038I Pass  84: suminf.    5.47832 (15) obj. 0 iterations 33
Cbc0038I Pass  85: suminf.    4.85817 (17) obj. 0 iterations 29
Cbc0038I Pass  86: suminf.    4.60566 (23) obj. 0 iterations 14
Cbc0038I Pass  87: suminf.    5.22339 (16) obj. 0 iterations 90
Cbc0038I Pass  88: suminf.    3.43974 (13) obj. 0 iterations 44
Cbc0038I Pass  89: suminf.    2.63205 (13) obj. 0 iterations 13
Cbc0038I Pass  90: suminf.    5.13248 (15) obj. 0 iterations 61
Cbc0038I Pass  91: suminf.    4.30904 (18) obj. 0 iterations 41
Cbc0038I Pass  92: suminf.    3.80000 (13) obj. 0 iterations 35
Cbc0038I Pass  93: suminf.    3.60000 (14) obj. 0 iterations 20
Cbc0038I Pass  94: suminf.    3.75387 (13) obj. 0 iterations 52
Cbc0038I Pass  95: suminf.    3.24202 (9) obj. 0 iterations 21
Cbc0038I Pass  96: suminf.    2.70588 (7) obj. 0 iterations 6
Cbc0038I Pass  97: suminf.    2.65231 (7) obj. 0 iterations 12
Cbc0038I Pass  98: suminf.    2.65231 (7) obj. 0 iterations 4
Cbc0038I Pass  99: suminf.    3.42857 (7) obj. 0 iterations 18
Cbc0038I Pass 100: suminf.   10.36134 (34) obj. 0 iterations 122
Cbc0038I No solution found this major pass
Cbc0038I Before mini branch and bound, 343 integers at bound fixed and 0 continuous
Cbc0038I Full problem 206 rows 534 columns, reduced to 157 rows 174 columns - too large
Cbc0038I Mini branch and bound did not improve solution (1.83 seconds)
Cbc0038I Full problem 207 rows 534 columns, reduced to 207 rows 534 columns - too large
Cbc0038I After 1.88 seconds - Feasibility pump exiting - took 0.60 seconds
Cbc0031I 55 added rows had average density of 91.727273
Cbc0013I At root node, 55 cuts changed objective from 0 to 0 in 10 passes
Cbc0014I Cut generator 0 (Probing) - 130 row cuts average 4.9 elements, 0 column cuts (0 active)  in 0.310 seconds - new frequency is -100
Cbc0014I Cut generator 1 (Gomory) - 190 row cuts average 500.8 elements, 0 column cuts (0 active)  in 0.181 seconds - new frequency is -100
Cbc0014I Cut generator 2 (Knapsack) - 26 row cuts average 12.3 elements, 0 column cuts (0 active)  in 0.043 seconds - new frequency is -100
Cbc0014I Cut generator 3 (Clique) - 37 row cuts average 12.2 elements, 0 column cuts (0 active)  in 0.006 seconds - new frequency is -100
Cbc0014I Cut generator 4 (OddWheel) - 0 row cuts average 0.0 elements, 0 column cuts (0 active)  in 0.017 seconds - new frequency is -100
Cbc0014I Cut generator 5 (MixedIntegerRounding2) - 48 row cuts average 53.0 elements, 0 column cuts (0 active)  in 0.031 seconds - new frequency is -100
Cbc0014I Cut generator 6 (FlowCover) - 0 row cuts average 0.0 elements, 0 column cuts (0 active)  in 0.001 seconds - new frequency is -100
Cbc0014I Cut generator 7 (TwoMirCuts) - 159 row cuts average 295.1 elements, 0 column cuts (0 active)  in 0.181 seconds - new frequency is -100
Cbc0014I Cut generator 8 (ZeroHalf) - 58 row cuts average 55.4 elements, 0 column cuts (0 active)  in 0.026 seconds - new frequency is -100
Cbc0010I After 0 nodes, 1 on tree, 1e+50 best solution, best possible 0 (3.52 seconds)
Cbc0010I After 18 nodes, 12 on tree, 1e+50 best solution, best possible 0 (4.22 seconds)
Cbc0016I Integer solution of 0 found by strong branching after 3207 iterations and 42 nodes (4.48 seconds)
Cbc0001I Search completed - best objective 0, took 3207 iterations and 42 nodes (4.48 seconds)
Cbc0032I Strong branching done 726 times (12728 iterations), fathomed 1 nodes and fixed 48 variables
Cbc0035I Maximum depth 27, 0 variables fixed on reduced cost
Cuts at root node changed objective from 0 to 0
Probing was tried 10 times and created 130 cuts of which 0 were active after adding rounds of cuts (0.310111 seconds)
Gomory was tried 10 times and created 190 cuts of which 0 were active after adding rounds of cuts (0.18143 seconds)
Knapsack was tried 10 times and created 26 cuts of which 0 were active after adding rounds of cuts (0.04328 seconds)
Clique was tried 10 times and created 37 cuts of which 0 were active after adding rounds of cuts (0.005621 seconds)
OddWheel was tried 10 times and created 0 cuts of which 0 were active after adding rounds of cuts (0.017209 seconds)
MixedIntegerRounding2 was tried 10 times and created 48 cuts of which 0 were active after adding rounds of cuts (0.030888 seconds)
FlowCover was tried 10 times and created 0 cuts of which 0 were active after adding rounds of cuts (0.001427 seconds)
TwoMirCuts was tried 10 times and created 159 cuts of which 0 were active after adding rounds of cuts (0.181256 seconds)
ZeroHalf was tried 10 times and created 58 cuts of which 0 were active after adding rounds of cuts (0.025775 seconds)

Result - Optimal solution found
Objective value:                0
Enumerated nodes:               42
Total iterations:               3207
Time (CPU seconds):             4.56012
Time (Wallclock seconds):       4.51558
Total time (CPU seconds):       4.59207   (Wallclock seconds):       4.52852
